p cnf 240 1028
1 2 3 0
4 5 6 0
7 8 9 0
10 11 12 0
13 14 15 0
16 17 18 0
19 20 21 0
22 23 24 0
25 26 27 0
28 29 30 0
31 32 33 0
34 35 36 0
37 38 39 0
40 41 42 0
43 44 45 0
46 47 48 0
49 50 51 0
52 53 54 0
55 56 57 0
58 59 60 0
61 62 63 0
64 65 66 0
67 68 69 0
70 71 72 0
73 74 75 0
76 77 78 0
79 80 81 0
82 83 84 0
85 86 87 0
88 89 90 0
91 92 93 0
94 95 96 0
97 98 99 0
100 101 102 0
103 104 105 0
106 107 108 0
109 110 111 0
112 113 114 0
115 116 117 0
118 119 120 0
121 122 123 0
124 125 126 0
127 128 129 0
130 131 132 0
133 134 135 0
136 137 138 0
139 140 141 0
142 143 144 0
145 146 147 0
148 149 150 0
151 152 153 0
154 155 156 0
157 158 159 0
160 161 162 0
163 164 165 0
166 167 168 0
169 170 171 0
172 173 174 0
175 176 177 0
178 179 180 0
181 182 183 0
184 185 186 0
187 188 189 0
190 191 192 0
193 194 195 0
196 197 198 0
199 200 201 0
202 203 204 0
205 206 207 0
208 209 210 0
211 212 213 0
214 215 216 0
217 218 219 0
220 221 222 0
223 224 225 0
226 227 228 0
229 230 231 0
232 233 234 0
235 236 237 0
238 239 240 0
-1 -2 0
-1 -3 0
-2 -3 0
-4 -5 0
-4 -6 0
-5 -6 0
-7 -8 0
-7 -9 0
-8 -9 0
-10 -11 0
-10 -12 0
-11 -12 0
-13 -14 0
-13 -15 0
-14 -15 0
-16 -17 0
-16 -18 0
-17 -18 0
-19 -20 0
-19 -21 0
-20 -21 0
-22 -23 0
-22 -24 0
-23 -24 0
-25 -26 0
-25 -27 0
-26 -27 0
-28 -29 0
-28 -30 0
-29 -30 0
-31 -32 0
-31 -33 0
-32 -33 0
-34 -35 0
-34 -36 0
-35 -36 0
-37 -38 0
-37 -39 0
-38 -39 0
-40 -41 0
-40 -42 0
-41 -42 0
-43 -44 0
-43 -45 0
-44 -45 0
-46 -47 0
-46 -48 0
-47 -48 0
-49 -50 0
-49 -51 0
-50 -51 0
-52 -53 0
-52 -54 0
-53 -54 0
-55 -56 0
-55 -57 0
-56 -57 0
-58 -59 0
-58 -60 0
-59 -60 0
-61 -62 0
-61 -63 0
-62 -63 0
-64 -65 0
-64 -66 0
-65 -66 0
-67 -68 0
-67 -69 0
-68 -69 0
-70 -71 0
-70 -72 0
-71 -72 0
-73 -74 0
-73 -75 0
-74 -75 0
-76 -77 0
-76 -78 0
-77 -78 0
-79 -80 0
-79 -81 0
-80 -81 0
-82 -83 0
-82 -84 0
-83 -84 0
-85 -86 0
-85 -87 0
-86 -87 0
-88 -89 0
-88 -90 0
-89 -90 0
-91 -92 0
-91 -93 0
-92 -93 0
-94 -95 0
-94 -96 0
-95 -96 0
-97 -98 0
-97 -99 0
-98 -99 0
-100 -101 0
-100 -102 0
-101 -102 0
-103 -104 0
-103 -105 0
-104 -105 0
-106 -107 0
-106 -108 0
-107 -108 0
-109 -110 0
-109 -111 0
-110 -111 0
-112 -113 0
-112 -114 0
-113 -114 0
-115 -116 0
-115 -117 0
-116 -117 0
-118 -119 0
-118 -120 0
-119 -120 0
-121 -122 0
-121 -123 0
-122 -123 0
-124 -125 0
-124 -126 0
-125 -126 0
-127 -128 0
-127 -129 0
-128 -129 0
-130 -131 0
-130 -132 0
-131 -132 0
-133 -134 0
-133 -135 0
-134 -135 0
-136 -137 0
-136 -138 0
-137 -138 0
-139 -140 0
-139 -141 0
-140 -141 0
-142 -143 0
-142 -144 0
-143 -144 0
-145 -146 0
-145 -147 0
-146 -147 0
-148 -149 0
-148 -150 0
-149 -150 0
-151 -152 0
-151 -153 0
-152 -153 0
-154 -155 0
-154 -156 0
-155 -156 0
-157 -158 0
-157 -159 0
-158 -159 0
-160 -161 0
-160 -162 0
-161 -162 0
-163 -164 0
-163 -165 0
-164 -165 0
-166 -167 0
-166 -168 0
-167 -168 0
-169 -170 0
-169 -171 0
-170 -171 0
-172 -173 0
-172 -174 0
-173 -174 0
-175 -176 0
-175 -177 0
-176 -177 0
-178 -179 0
-178 -180 0
-179 -180 0
-181 -182 0
-181 -183 0
-182 -183 0
-184 -185 0
-184 -186 0
-185 -186 0
-187 -188 0
-187 -189 0
-188 -189 0
-190 -191 0
-190 -192 0
-191 -192 0
-193 -194 0
-193 -195 0
-194 -195 0
-196 -197 0
-196 -198 0
-197 -198 0
-199 -200 0
-199 -201 0
-200 -201 0
-202 -203 0
-202 -204 0
-203 -204 0
-205 -206 0
-205 -207 0
-206 -207 0
-208 -209 0
-208 -210 0
-209 -210 0
-211 -212 0
-211 -213 0
-212 -213 0
-214 -215 0
-214 -216 0
-215 -216 0
-217 -218 0
-217 -219 0
-218 -219 0
-220 -221 0
-220 -222 0
-221 -222 0
-223 -224 0
-223 -225 0
-224 -225 0
-226 -227 0
-226 -228 0
-227 -228 0
-229 -230 0
-229 -231 0
-230 -231 0
-232 -233 0
-232 -234 0
-233 -234 0
-235 -236 0
-235 -237 0
-236 -237 0
-238 -239 0
-238 -240 0
-239 -240 0
-1 -10 0
-1 -52 0
-1 -169 0
-4 -16 0
-4 -64 0
-4 -211 0
-7 -88 0
-7 -115 0
-7 -139 0
-10 -1 0
-10 -19 0
-10 -103 0
-13 -85 0
-13 -103 0
-13 -205 0
-16 -4 0
-16 -40 0
-16 -235 0
-19 -10 0
-19 -52 0
-19 -220 0
-22 -76 0
-22 -160 0
-22 -220 0
-25 -91 0
-25 -145 0
-25 -229 0
-28 -94 0
-28 -145 0
-28 -226 0
-31 -136 0
-31 -205 0
-31 -229 0
-34 -46 0
-34 -79 0
-34 -223 0
-37 -160 0
-37 -166 0
-37 -208 0
-40 -16 0
-40 -148 0
-40 -199 0
-43 -55 0
-43 -61 0
-46 -34 0
-46 -52 0
-46 -154 0
-49 -97 0
-49 -175 0
-49 -220 0
-52 -1 0
-52 -19 0
-52 -46 0
-55 -43 0
-55 -157 0
-55 -208 0
-58 -61 0
-58 -157 0
-58 -205 0
-61 -43 0
-61 -58 0
-64 -4 0
-64 -142 0
-64 -193 0
-67 -91 0
-67 -103 0
-67 -133 0
-70 -76 0
-70 -109 0
-70 -130 0
-73 -178 0
-73 -193 0
-73 -208 0
-76 -22 0
-76 -70 0
-76 -193 0
-79 -34 0
-79 -118 0
-79 -136 0
-82 -91 0
-82 -127 0
-82 -130 0
-85 -13 0
-85 -118 0
-85 -121 0
-88 -7 0
-88 -97 0
-88 -130 0
-91 -25 0
-91 -67 0
-91 -82 0
-94 -28 0
-94 -190 0
-94 -199 0
-97 -49 0
-97 -88 0
-97 -232 0
-100 -118 0
-100 -127 0
-100 -223 0
-103 -10 0
-103 -13 0
-103 -67 0
-106 -163 0
-106 -199 0
-106 -235 0
-109 -70 0
-109 -124 0
-109 -175 0
-112 -163 0
-112 -166 0
-115 -7 0
-115 -121 0
-115 -127 0
-118 -79 0
-118 -85 0
-118 -100 0
-121 -85 0
-121 -115 0
-121 -124 0
-124 -109 0
-124 -121 0
-124 -202 0
-127 -82 0
-127 -100 0
-127 -115 0
-130 -70 0
-130 -82 0
-130 -88 0
-133 -67 0
-133 -157 0
-133 -169 0
-136 -31 0
-136 -79 0
-136 -229 0
-139 -7 0
-139 -172 0
-139 -232 0
-142 -64 0
-142 -148 0
-142 -235 0
-145 -25 0
-145 -28 0
-145 -163 0
-148 -40 0
-148 -142 0
-148 -202 0
-151 -160 0
-151 -178 0
-151 -202 0
-154 -46 0
-154 -175 0
-154 -223 0
-157 -55 0
-157 -58 0
-157 -133 0
-160 -22 0
-160 -37 0
-160 -151 0
-163 -106 0
-163 -112 0
-163 -145 0
-166 -37 0
-166 -112 0
-169 -1 0
-169 -133 0
-169 -172 0
-172 -139 0
-172 -169 0
-172 -184 0
-175 -49 0
-175 -109 0
-175 -154 0
-178 -73 0
-178 -151 0
-178 -217 0
-181 -190 0
-181 -211 0
-181 -232 0
-184 -172 0
-184 -214 0
-184 -238 0
-187 -190 0
-187 -196 0
-187 -238 0
-190 -94 0
-190 -181 0
-190 -187 0
-193 -64 0
-193 -73 0
-193 -76 0
-196 -187 0
-196 -217 0
-196 -238 0
-199 -40 0
-199 -94 0
-199 -106 0
-202 -124 0
-202 -148 0
-202 -151 0
-205 -13 0
-205 -31 0
-205 -58 0
-208 -37 0
-208 -55 0
-208 -73 0
-211 -4 0
-211 -181 0
-211 -214 0
-214 -184 0
-214 -211 0
-214 -226 0
-217 -178 0
-217 -196 0
-217 -226 0
-220 -19 0
-220 -22 0
-220 -49 0
-223 -34 0
-223 -100 0
-223 -154 0
-226 -28 0
-226 -214 0
-226 -217 0
-229 -25 0
-229 -31 0
-229 -136 0
-232 -97 0
-232 -139 0
-232 -181 0
-235 -16 0
-235 -106 0
-235 -142 0
-238 -184 0
-238 -187 0
-238 -196 0
-2 -11 0
-2 -53 0
-2 -170 0
-5 -17 0
-5 -65 0
-5 -212 0
-8 -89 0
-8 -116 0
-8 -140 0
-11 -2 0
-11 -20 0
-11 -104 0
-14 -86 0
-14 -104 0
-14 -206 0
-17 -5 0
-17 -41 0
-17 -236 0
-20 -11 0
-20 -53 0
-20 -221 0
-23 -77 0
-23 -161 0
-23 -221 0
-26 -92 0
-26 -146 0
-26 -230 0
-29 -95 0
-29 -146 0
-29 -227 0
-32 -137 0
-32 -206 0
-32 -230 0
-35 -47 0
-35 -80 0
-35 -224 0
-38 -161 0
-38 -167 0
-38 -209 0
-41 -17 0
-41 -149 0
-41 -200 0
-44 -56 0
-44 -62 0
-47 -35 0
-47 -53 0
-47 -155 0
-50 -98 0
-50 -176 0
-50 -221 0
-53 -2 0
-53 -20 0
-53 -47 0
-56 -44 0
-56 -158 0
-56 -209 0
-59 -62 0
-59 -158 0
-59 -206 0
-62 -44 0
-62 -59 0
-65 -5 0
-65 -143 0
-65 -194 0
-68 -92 0
-68 -104 0
-68 -134 0
-71 -77 0
-71 -110 0
-71 -131 0
-74 -179 0
-74 -194 0
-74 -209 0
-77 -23 0
-77 -71 0
-77 -194 0
-80 -35 0
-80 -119 0
-80 -137 0
-83 -92 0
-83 -128 0
-83 -131 0
-86 -14 0
-86 -119 0
-86 -122 0
-89 -8 0
-89 -98 0
-89 -131 0
-92 -26 0
-92 -68 0
-92 -83 0
-95 -29 0
-95 -191 0
-95 -200 0
-98 -50 0
-98 -89 0
-98 -233 0
-101 -119 0
-101 -128 0
-101 -224 0
-104 -11 0
-104 -14 0
-104 -68 0
-107 -164 0
-107 -200 0
-107 -236 0
-110 -71 0
-110 -125 0
-110 -176 0
-113 -164 0
-113 -167 0
-116 -8 0
-116 -122 0
-116 -128 0
-119 -80 0
-119 -86 0
-119 -101 0
-122 -86 0
-122 -116 0
-122 -125 0
-125 -110 0
-125 -122 0
-125 -203 0
-128 -83 0
-128 -101 0
-128 -116 0
-131 -71 0
-131 -83 0
-131 -89 0
-134 -68 0
-134 -158 0
-134 -170 0
-137 -32 0
-137 -80 0
-137 -230 0
-140 -8 0
-140 -173 0
-140 -233 0
-143 -65 0
-143 -149 0
-143 -236 0
-146 -26 0
-146 -29 0
-146 -164 0
-149 -41 0
-149 -143 0
-149 -203 0
-152 -161 0
-152 -179 0
-152 -203 0
-155 -47 0
-155 -176 0
-155 -224 0
-158 -56 0
-158 -59 0
-158 -134 0
-161 -23 0
-161 -38 0
-161 -152 0
-164 -107 0
-164 -113 0
-164 -146 0
-167 -38 0
-167 -113 0
-170 -2 0
-170 -134 0
-170 -173 0
-173 -140 0
-173 -170 0
-173 -185 0
-176 -50 0
-176 -110 0
-176 -155 0
-179 -74 0
-179 -152 0
-179 -218 0
-182 -191 0
-182 -212 0
-182 -233 0
-185 -173 0
-185 -215 0
-185 -239 0
-188 -191 0
-188 -197 0
-188 -239 0
-191 -95 0
-191 -182 0
-191 -188 0
-194 -65 0
-194 -74 0
-194 -77 0
-197 -188 0
-197 -218 0
-197 -239 0
-200 -41 0
-200 -95 0
-200 -107 0
-203 -125 0
-203 -149 0
-203 -152 0
-206 -14 0
-206 -32 0
-206 -59 0
-209 -38 0
-209 -56 0
-209 -74 0
-212 -5 0
-212 -182 0
-212 -215 0
-215 -185 0
-215 -212 0
-215 -227 0
-218 -179 0
-218 -197 0
-218 -227 0
-221 -20 0
-221 -23 0
-221 -50 0
-224 -35 0
-224 -101 0
-224 -155 0
-227 -29 0
-227 -215 0
-227 -218 0
-230 -26 0
-230 -32 0
-230 -137 0
-233 -98 0
-233 -140 0
-233 -182 0
-236 -17 0
-236 -107 0
-236 -143 0
-239 -185 0
-239 -188 0
-239 -197 0
-3 -12 0
-3 -54 0
-3 -171 0
-6 -18 0
-6 -66 0
-6 -213 0
-9 -90 0
-9 -117 0
-9 -141 0
-12 -3 0
-12 -21 0
-12 -105 0
-15 -87 0
-15 -105 0
-15 -207 0
-18 -6 0
-18 -42 0
-18 -237 0
-21 -12 0
-21 -54 0
-21 -222 0
-24 -78 0
-24 -162 0
-24 -222 0
-27 -93 0
-27 -147 0
-27 -231 0
-30 -96 0
-30 -147 0
-30 -228 0
-33 -138 0
-33 -207 0
-33 -231 0
-36 -48 0
-36 -81 0
-36 -225 0
-39 -162 0
-39 -168 0
-39 -210 0
-42 -18 0
-42 -150 0
-42 -201 0
-45 -57 0
-45 -63 0
-48 -36 0
-48 -54 0
-48 -156 0
-51 -99 0
-51 -177 0
-51 -222 0
-54 -3 0
-54 -21 0
-54 -48 0
-57 -45 0
-57 -159 0
-57 -210 0
-60 -63 0
-60 -159 0
-60 -207 0
-63 -45 0
-63 -60 0
-66 -6 0
-66 -144 0
-66 -195 0
-69 -93 0
-69 -105 0
-69 -135 0
-72 -78 0
-72 -111 0
-72 -132 0
-75 -180 0
-75 -195 0
-75 -210 0
-78 -24 0
-78 -72 0
-78 -195 0
-81 -36 0
-81 -120 0
-81 -138 0
-84 -93 0
-84 -129 0
-84 -132 0
-87 -15 0
-87 -120 0
-87 -123 0
-90 -9 0
-90 -99 0
-90 -132 0
-93 -27 0
-93 -69 0
-93 -84 0
-96 -30 0
-96 -192 0
-96 -201 0
-99 -51 0
-99 -90 0
-99 -234 0
-102 -120 0
-102 -129 0
-102 -225 0
-105 -12 0
-105 -15 0
-105 -69 0
-108 -165 0
-108 -201 0
-108 -237 0
-111 -72 0
-111 -126 0
-111 -177 0
-114 -165 0
-114 -168 0
-117 -9 0
-117 -123 0
-117 -129 0
-120 -81 0
-120 -87 0
-120 -102 0
-123 -87 0
-123 -117 0
-123 -126 0
-126 -111 0
-126 -123 0
-126 -204 0
-129 -84 0
-129 -102 0
-129 -117 0
-132 -72 0
-132 -84 0
-132 -90 0
-135 -69 0
-135 -159 0
-135 -171 0
-138 -33 0
-138 -81 0
-138 -231 0
-141 -9 0
-141 -174 0
-141 -234 0
-144 -66 0
-144 -150 0
-144 -237 0
-147 -27 0
-147 -30 0
-147 -165 0
-150 -42 0
-150 -144 0
-150 -204 0
-153 -162 0
-153 -180 0
-153 -204 0
-156 -48 0
-156 -177 0
-156 -225 0
-159 -57 0
-159 -60 0
-159 -135 0
-162 -24 0
-162 -39 0
-162 -153 0
-165 -108 0
-165 -114 0
-165 -147 0
-168 -39 0
-168 -114 0
-171 -3 0
-171 -135 0
-171 -174 0
-174 -141 0
-174 -171 0
-174 -186 0
-177 -51 0
-177 -111 0
-177 -156 0
-180 -75 0
-180 -153 0
-180 -219 0
-183 -192 0
-183 -213 0
-183 -234 0
-186 -174 0
-186 -216 0
-186 -240 0
-189 -192 0
-189 -198 0
-189 -240 0
-192 -96 0
-192 -183 0
-192 -189 0
-195 -66 0
-195 -75 0
-195 -78 0
-198 -189 0
-198 -219 0
-198 -240 0
-201 -42 0
-201 -96 0
-201 -108 0
-204 -126 0
-204 -150 0
-204 -153 0
-207 -15 0
-207 -33 0
-207 -60 0
-210 -39 0
-210 -57 0
-210 -75 0
-213 -6 0
-213 -183 0
-213 -216 0
-216 -186 0
-216 -213 0
-216 -228 0
-219 -180 0
-219 -198 0
-219 -228 0
-222 -21 0
-222 -24 0
-222 -51 0
-225 -36 0
-225 -102 0
-225 -156 0
-228 -30 0
-228 -216 0
-228 -219 0
-231 -27 0
-231 -33 0
-231 -138 0
-234 -99 0
-234 -141 0
-234 -183 0
-237 -18 0
-237 -108 0
-237 -144 0
-240 -186 0
-240 -189 0
-240 -198 0
